(set-logic QF_LRA)
(declare-fun T1 () Real )
(declare-fun T2 () Real )
(declare-fun T3 () Real )
(declare-fun T4 () Real )
(declare-fun T5 () Real )
(declare-fun T6 () Real )
(declare-fun Z () Real )
(declare-fun k () Real )
(assert (let
(( $goal (>= Z k) ))
(let
((
$phi ( and 
(or ( <= ( + T1 99 ) T2 ) ( <= ( + T2 62 ) T1 ) )
(or ( <= ( + T1 178 )  ( + T2 62 ) ) ( <= ( + T2 120 )( + T1 99 ) ) )
(or ( <= ( + T1 210 )  ( + T2 120 ) ) ( <= ( + T2 180 )( + T1 178 ) ) )
(or ( <= ( + T1 216 )  ( + T2 180 ) ) ( <= ( + T2 212 )( + T1 210 ) ) )
(or ( <= ( + T1 99 ) T3 ) ( <= ( + T3 27 ) T1 ) )
(or ( <= ( + T1 178 )  ( + T3 27 ) ) ( <= ( + T3 66 )( + T1 99 ) ) )
(or ( <= ( + T1 210 )  ( + T3 66 ) ) ( <= ( + T3 121 )( + T1 178 ) ) )
(or ( <= ( + T1 216 )  ( + T3 121 ) ) ( <= ( + T3 128 )( + T1 210 ) ) )
(or ( <= ( + T1 99 ) T4 ) ( <= ( + T4 8 ) T1 ) )
(or ( <= ( + T1 178 )  ( + T4 8 ) ) ( <= ( + T4 89 )( + T1 99 ) ) )
(or ( <= ( + T1 210 )  ( + T4 89 ) ) ( <= ( + T4 125 )( + T1 178 ) ) )
(or ( <= ( + T1 216 )  ( + T4 125 ) ) ( <= ( + T4 152 )( + T1 210 ) ) )
(or ( <= ( + T1 99 ) T5 ) ( <= ( + T5 76 ) T1 ) )
(or ( <= ( + T1 178 )  ( + T5 76 ) ) ( <= ( + T5 128 )( + T1 99 ) ) )
(or ( <= ( + T1 210 )  ( + T5 128 ) ) ( <= ( + T5 178 )( + T1 178 ) ) )
(or ( <= ( + T1 216 )  ( + T5 178 ) ) ( <= ( + T5 189 )( + T1 210 ) ) )
(or ( <= ( + T1 99 ) T6 ) ( <= ( + T6 99 ) T1 ) )
(or ( <= ( + T1 178 )  ( + T6 99 ) ) ( <= ( + T6 146 )( + T1 99 ) ) )
(or ( <= ( + T1 210 )  ( + T6 146 ) ) ( <= ( + T6 234 )( + T1 178 ) ) )
(or ( <= ( + T1 216 )  ( + T6 234 ) ) ( <= ( + T6 247 )( + T1 210 ) ) )
(or ( <= ( + T2 62 ) T3 ) ( <= ( + T3 27 ) T2 ) )
(or ( <= ( + T2 120 )  ( + T3 27 ) ) ( <= ( + T3 66 )( + T2 62 ) ) )
(or ( <= ( + T2 180 )  ( + T3 66 ) ) ( <= ( + T3 121 )( + T2 120 ) ) )
(or ( <= ( + T2 212 )  ( + T3 121 ) ) ( <= ( + T3 128 )( + T2 180 ) ) )
(or ( <= ( + T2 62 ) T4 ) ( <= ( + T4 8 ) T2 ) )
(or ( <= ( + T2 120 )  ( + T4 8 ) ) ( <= ( + T4 89 )( + T2 62 ) ) )
(or ( <= ( + T2 180 )  ( + T4 89 ) ) ( <= ( + T4 125 )( + T2 120 ) ) )
(or ( <= ( + T2 212 )  ( + T4 125 ) ) ( <= ( + T4 152 )( + T2 180 ) ) )
(or ( <= ( + T2 62 ) T5 ) ( <= ( + T5 76 ) T2 ) )
(or ( <= ( + T2 120 )  ( + T5 76 ) ) ( <= ( + T5 128 )( + T2 62 ) ) )
(or ( <= ( + T2 180 )  ( + T5 128 ) ) ( <= ( + T5 178 )( + T2 120 ) ) )
(or ( <= ( + T2 212 )  ( + T5 178 ) ) ( <= ( + T5 189 )( + T2 180 ) ) )
(or ( <= ( + T2 62 ) T6 ) ( <= ( + T6 99 ) T2 ) )
(or ( <= ( + T2 120 )  ( + T6 99 ) ) ( <= ( + T6 146 )( + T2 62 ) ) )
(or ( <= ( + T2 180 )  ( + T6 146 ) ) ( <= ( + T6 234 )( + T2 120 ) ) )
(or ( <= ( + T2 212 )  ( + T6 234 ) ) ( <= ( + T6 247 )( + T2 180 ) ) )
(or ( <= ( + T3 27 ) T4 ) ( <= ( + T4 8 ) T3 ) )
(or ( <= ( + T3 66 )  ( + T4 8 ) ) ( <= ( + T4 89 )( + T3 27 ) ) )
(or ( <= ( + T3 121 )  ( + T4 89 ) ) ( <= ( + T4 125 )( + T3 66 ) ) )
(or ( <= ( + T3 128 )  ( + T4 125 ) ) ( <= ( + T4 152 )( + T3 121 ) ) )
(or ( <= ( + T3 27 ) T5 ) ( <= ( + T5 76 ) T3 ) )
(or ( <= ( + T3 66 )  ( + T5 76 ) ) ( <= ( + T5 128 )( + T3 27 ) ) )
(or ( <= ( + T3 121 )  ( + T5 128 ) ) ( <= ( + T5 178 )( + T3 66 ) ) )
(or ( <= ( + T3 128 )  ( + T5 178 ) ) ( <= ( + T5 189 )( + T3 121 ) ) )
(or ( <= ( + T3 27 ) T6 ) ( <= ( + T6 99 ) T3 ) )
(or ( <= ( + T3 66 )  ( + T6 99 ) ) ( <= ( + T6 146 )( + T3 27 ) ) )
(or ( <= ( + T3 121 )  ( + T6 146 ) ) ( <= ( + T6 234 )( + T3 66 ) ) )
(or ( <= ( + T3 128 )  ( + T6 234 ) ) ( <= ( + T6 247 )( + T3 121 ) ) )
(or ( <= ( + T4 8 ) T5 ) ( <= ( + T5 76 ) T4 ) )
(or ( <= ( + T4 89 )  ( + T5 76 ) ) ( <= ( + T5 128 )( + T4 8 ) ) )
(or ( <= ( + T4 125 )  ( + T5 128 ) ) ( <= ( + T5 178 )( + T4 89 ) ) )
(or ( <= ( + T4 152 )  ( + T5 178 ) ) ( <= ( + T5 189 )( + T4 125 ) ) )
(or ( <= ( + T4 8 ) T6 ) ( <= ( + T6 99 ) T4 ) )
(or ( <= ( + T4 89 )  ( + T6 99 ) ) ( <= ( + T6 146 )( + T4 8 ) ) )
(or ( <= ( + T4 125 )  ( + T6 146 ) ) ( <= ( + T6 234 )( + T4 89 ) ) )
(or ( <= ( + T4 152 )  ( + T6 234 ) ) ( <= ( + T6 247 )( + T4 125 ) ) )
(or ( <= ( + T5 76 ) T6 ) ( <= ( + T6 99 ) T5 ) )
(or ( <= ( + T5 128 )  ( + T6 99 ) ) ( <= ( + T6 146 )( + T5 76 ) ) )
(or ( <= ( + T5 178 )  ( + T6 146 ) ) ( <= ( + T6 234 )( + T5 128 ) ) )
(or ( <= ( + T5 189 )  ( + T6 234 ) ) ( <= ( + T6 247 )( + T5 178 ) ) )
( <= ( + T1 216 ) Z)
( <= ( + T2 212 ) Z)
( <= ( + T3 128 ) Z)
( <= ( + T4 152 ) Z)
( <= ( + T5 189 ) Z)
( <= ( + T6 247 ) Z)
( >= T1 0 )
( >= T2 0 )
( >= T3 0 )
( >= T4 0 )
( >= T5 0 )
( >= T6 0 )
) )
)(=> $phi $goal))))